NAME 
ROWS
 N  OBJ
 L  R0      
 L  R1      
 L  R2      
 E  R3      
 E  R4      
 E  R5      
 E  R6      
 E  R7      
 E  R8      
 E  R9      
 E  R10     
 E  R11     
 E  R12     
 E  R13     
 E  R14     
 E  R15     
 E  R16     
 E  R17     
 E  R18     
 E  R19     
 E  R20     
 E  R21     
 E  R22     
COLUMNS
    MARKER    'MARKER'                 'INTORG'
    I0(13)    OBJ       102
    I0(13)    R0        -168
    I0(13)    R1        -28
    I0(13)    R2        71
    I0(13)    R4        12
    I0(13)    R5        2
    I0(13)    R6        3
    I0(13)    R8        10
    I0(13)    R9        8
    I0(13)    R10       5
    I0(13)    R11       11
    I0(13)    R13       3
    I0(13)    R14       8
    I0(13)    R22       1
    I1(11)    OBJ       -70
    I1(11)    R0        128
    I1(11)    R1        143
    I1(11)    R2        50
    I1(11)    R3        8
    I1(11)    R5        16
    I1(11)    R6        19
    I1(11)    R7        8
    I1(11)    R12       18
    I1(11)    R13       3
    I1(11)    R14       3
    I1(11)    R22       1
    I2(13)    OBJ       -165
    I2(13)    R0        42
    I2(13)    R1        -73
    I2(13)    R2        -146
    I2(13)    R3        1
    I2(13)    R6        1
    I2(13)    R8        2
    I2(13)    R9        6
    I2(13)    R10       -1
    I2(13)    R11       10
    I2(13)    R12       4
    I2(13)    R13       4
    I2(13)    R14       12
    I2(13)    R22       1
    I3(14)    OBJ       99
    I3(14)    R0        95
    I3(14)    R1        -120
    I3(14)    R2        -53
    I3(14)    R3        4
    I3(14)    R4        5
    I3(14)    R5        2
    I3(14)    R6        12
    I3(14)    R7        17
    I3(14)    R8        9
    I3(14)    R9        16
    I3(14)    R10       10
    I3(14)    R13       19
    I3(14)    R14       3
    I3(14)    R22       1
    I4(13)    OBJ       -94
    I4(13)    R0        22
    I4(13)    R1        121
    I4(13)    R2        -164
    I4(13)    R3        14
    I4(13)    R4        14
    I4(13)    R6        17
    I4(13)    R7        18
    I4(13)    R8        9
    I4(13)    R9        3
    I4(13)    R10       6
    I4(13)    R13       19
    I4(13)    R14       7
    I4(13)    R22       1
    I5(13)    OBJ       -190
    I5(13)    R0        183
    I5(13)    R1        -200
    I5(13)    R2        81
    I5(13)    R3        11
    I5(13)    R4        1
    I5(13)    R5        18
    I5(13)    R6        9
    I5(13)    R7        5
    I5(13)    R8        18
    I5(13)    R9        15
    I5(13)    R10       9
    I5(13)    R12       19
    I5(13)    R22       1
    I6(15)    OBJ       28
    I6(15)    R0        -183
    I6(15)    R1        192
    I6(15)    R2        -167
    I6(15)    R3        7
    I6(15)    R4        9
    I6(15)    R5        10
    I6(15)    R6        13
    I6(15)    R8        3
    I6(15)    R9        5
    I6(15)    R10       -1
    I6(15)    R11       -1
    I6(15)    R12       5
    I6(15)    R13       8
    I6(15)    R14       8
    I6(15)    R22       1
    I7(16)    OBJ       196
    I7(16)    R0        -4
    I7(16)    R1        -19
    I7(16)    R2        -81
    I7(16)    R3        19
    I7(16)    R4        16
    I7(16)    R5        15
    I7(16)    R6        3
    I7(16)    R7        18
    I7(16)    R8        17
    I7(16)    R9        7
    I7(16)    R10       6
    I7(16)    R11       2
    I7(16)    R12       3
    I7(16)    R13       2
    I7(16)    R14       17
    I7(16)    R22       1
    I8(15)    OBJ       121
    I8(15)    R0        141
    I8(15)    R1        162
    I8(15)    R2        99
    I8(15)    R3        1
    I8(15)    R4        5
    I8(15)    R6        8
    I8(15)    R7        4
    I8(15)    R8        12
    I8(15)    R9        -1
    I8(15)    R10       15
    I8(15)    R11       13
    I8(15)    R12       10
    I8(15)    R13       15
    I8(15)    R14       2
    I8(15)    R22       1
    I9(14)    OBJ       -104
    I9(14)    R0        192
    I9(14)    R1        -194
    I9(14)    R2        -51
    I9(14)    R3        13
    I9(14)    R4        3
    I9(14)    R5        8
    I9(14)    R6        17
    I9(14)    R7        5
    I9(14)    R9        14
    I9(14)    R10       8
    I9(14)    R11       -1
    I9(14)    R13       13
    I9(14)    R14       9
    I9(14)    R22       1
    I10(9)    OBJ       194
    I10(9)    R0        -161
    I10(9)    R1        131
    I10(9)    R2        -197
    I10(9)    R9        1
    I10(9)    R10       2
    I10(9)    R11       18
    I10(9)    R13       12
    I10(9)    R14       13
    I10(9)    R22       1
    I11(14)   OBJ       23
    I11(14)   R0        33
    I11(14)   R1        -74
    I11(14)   R2        -41
    I11(14)   R4        -1
    I11(14)   R5        11
    I11(14)   R6        11
    I11(14)   R7        19
    I11(14)   R8        9
    I11(14)   R10       14
    I11(14)   R11       3
    I11(14)   R12       5
    I11(14)   R13       10
    I11(14)   R14       7
    I11(14)   R22       1
    MARKER    'MARKER'                 'INTEND'
    C12(16)   OBJ       -1
    C12(16)   R0        1
    C12(16)   R1        -1
    C12(16)   R2        9
    C12(16)   R3        19
    C12(16)   R4        7
    C12(16)   R5        15
    C12(16)   R7        19
    C12(16)   R8        5
    C12(16)   R11       12
    C12(16)   R13       4
    C12(16)   R15       6
    C12(16)   R16       1
    C12(16)   R17       14
    C12(16)   R18       11
    C12(16)   R19       2
    C12(16)   R20       13
    C13(15)   R0        -10
    C13(15)   R1        7
    C13(15)   R2        1
    C13(15)   R3        17
    C13(15)   R4        19
    C13(15)   R6        10
    C13(15)   R7        19
    C13(15)   R8        19
    C13(15)   R9        13
    C13(15)   R10       7
    C13(15)   R16       5
    C13(15)   R17       17
    C13(15)   R18       2
    C13(15)   R19       17
    C13(15)   R21       1
    C14(19)   OBJ       -8
    C14(19)   R0        -10
    C14(19)   R1        -5
    C14(19)   R2        -6
    C14(19)   R3        19
    C14(19)   R4        15
    C14(19)   R5        6
    C14(19)   R6        12
    C14(19)   R7        14
    C14(19)   R8        19
    C14(19)   R9        11
    C14(19)   R11       9
    C14(19)   R12       16
    C14(19)   R14       14
    C14(19)   R15       10
    C14(19)   R16       17
    C14(19)   R18       8
    C14(19)   R19       7
    C14(19)   R20       16
    C14(19)   R21       5
    C15(19)   OBJ       8
    C15(19)   R0        6
    C15(19)   R1        -7
    C15(19)   R2        8
    C15(19)   R3        19
    C15(19)   R4        10
    C15(19)   R5        10
    C15(19)   R6        7
    C15(19)   R7        10
    C15(19)   R9        14
    C15(19)   R10       11
    C15(19)   R11       16
    C15(19)   R12       8
    C15(19)   R13       12
    C15(19)   R14       13
    C15(19)   R16       19
    C15(19)   R17       10
    C15(19)   R19       -1
    C15(19)   R20       5
    C15(19)   R21       6
    C16(18)   R0        8
    C16(18)   R1        5
    C16(18)   R2        -6
    C16(18)   R3        14
    C16(18)   R4        17
    C16(18)   R5        5
    C16(18)   R6        13
    C16(18)   R7        2
    C16(18)   R8        1
    C16(18)   R10       -1
    C16(18)   R11       17
    C16(18)   R12       9
    C16(18)   R13       8
    C16(18)   R14       4
    C16(18)   R16       16
    C16(18)   R18       2
    C16(18)   R19       11
    C16(18)   R21       13
    C17(18)   OBJ       -9
    C17(18)   R0        -5
    C17(18)   R1        -9
    C17(18)   R2        4
    C17(18)   R4        18
    C17(18)   R5        7
    C17(18)   R7        19
    C17(18)   R8        8
    C17(18)   R9        19
    C17(18)   R11       10
    C17(18)   R12       12
    C17(18)   R13       1
    C17(18)   R14       9
    C17(18)   R15       1
    C17(18)   R16       4
    C17(18)   R18       14
    C17(18)   R19       3
    C17(18)   R20       7
    C17(18)   R21       18
    C18(17)   OBJ       -2
    C18(17)   R0        9
    C18(17)   R1        2
    C18(17)   R2        -9
    C18(17)   R3        7
    C18(17)   R4        1
    C18(17)   R5        17
    C18(17)   R6        5
    C18(17)   R7        16
    C18(17)   R8        7
    C18(17)   R9        3
    C18(17)   R10       19
    C18(17)   R11       10
    C18(17)   R14       10
    C18(17)   R15       2
    C18(17)   R17       8
    C18(17)   R18       5
    C18(17)   R20       2
    C19(18)   OBJ       -2
    C19(18)   R0        3
    C19(18)   R1        -4
    C19(18)   R2        1
    C19(18)   R3        2
    C19(18)   R4        18
    C19(18)   R5        17
    C19(18)   R6        12
    C19(18)   R8        15
    C19(18)   R9        14
    C19(18)   R10       16
    C19(18)   R11       9
    C19(18)   R12       18
    C19(18)   R13       14
    C19(18)   R15       1
    C19(18)   R17       6
    C19(18)   R18       6
    C19(18)   R19       11
    C19(18)   R20       12
    C20(1)    R3        1
    C21(1)    R4        1
    C22(1)    R5        1
    C23(1)    R6        1
    C24(1)    R7        1
    C25(1)    R8        1
    C26(1)    R9        1
    C27(1)    R10       1
    C28(1)    R11       1
    C29(1)    R12       1
    C30(1)    R13       1
    C31(1)    R14       1
    C32(1)    R15       1
    C33(1)    R16       1
    C34(1)    R17       1
    C35(1)    R18       1
    C36(1)    R19       1
    C37(1)    R20       1
    C38(1)    R21       1
    C39(1)    R22       1
RHS
    RHS1      R0        4.2603601108033240e+02
    RHS1      R1        -3.5428254847645428e+02
    RHS1      R2        -2.8583933518005540e+02
    RHS1      R3        61
    RHS1      R4        52
    RHS1      R5        69
    RHS1      R6        78
    RHS1      R7        89
    RHS1      R8        84
    RHS1      R9        56
    RHS1      R10       95
    RHS1      R11       73
    RHS1      R12       54
    RHS1      R13       68
    RHS1      R14       95
    RHS1      R15       93
    RHS1      R16       52
    RHS1      R17       63
    RHS1      R18       63
    RHS1      R19       74
    RHS1      R20       51
    RHS1      R21       75
    RHS1      R22       4
BOUNDS
 UP BND1      I0(13)    1
 UP BND1      I1(11)    1
 UP BND1      I2(13)    1
 UP BND1      I3(14)    1
 UP BND1      I4(13)    1
 UP BND1      I5(13)    1
 UP BND1      I6(15)    1
 UP BND1      I7(16)    1
 UP BND1      I8(15)    1
 UP BND1      I9(14)    1
 UP BND1      I10(9)    1
 UP BND1      I11(14)   1
ENDATA
